p cnf 50 10
x -2 -4 5 8 10 -11 -13 -15 -16 17 -18 23 -24 27 29 -30 -31 32 33 -34 -36 38 40 -41 43 45 47 48 50 0
x -1 -4 -5 -6 -8 9 -10 -12 -14 -16 -17 -18 -19 20 -21 -22 -24 -25 -26 -28 -29 -30 31 32 37 -38 -40 -43 -44 45 -50 0
x 1 -3 5 6 11 12 15 -16 17 18 -19 -21 -22 23 24 25 -26 -27 -28 29 30 33 -34 35 41 43 -44 45 47 0
x -1 3 -4 -8 -9 10 11 -12 14 -15 16 -17 -20 -21 24 -25 27 30 33 -35 -36 -37 38 42 -43 45 -46 -48 0
x -1 3 -4 5 6 -11 -13 -16 -18 19 23 -25 26 27 -38 41 -44 45 -46 47 49 0
x -3 5 6 -7 -8 -10 11 13 -14 17 -19 20 -24 26 29 -30 -31 -32 34 35 38 40 -42 -43 -45 47 -49 -50 0
x -1 -2 5 -8 11 -13 16 18 -19 -20 -22 -25 -27 -31 -32 34 -35 -36 37 41 -45 46 49 50 0
x -2 -3 -9 10 -15 16 -17 18 20 -23 27 -29 34 -35 38 41 44 -45 -47 -50 0
x -2 8 -11 -13 -14 -18 22 -23 27 29 30 31 35 -36 -37 -40 41 -43 45 46 -47 -50 0
x -4 -5 -6 8 -11 14 18 -20 -22 23 25 -26 -27 -30 31 34 -35 -36 -38 40 -43 46 -50 0
g -10